NAME : speedup20
TYPE : TSP
DIMENSION : 20
EDGE_WEIGHT_TYPE : EUC_2D
NODE_COORD_SECTION
1 448 472
2 436 48
3 193 264
4 388 24
5 207 87
6 80 168
7 168 214
8 272 453
9 329 366
10 118 402
11 162 437
12 477 32
13 291 496
14 323 364
15 196 170
16 397 406
17 139 463
18 281 222
19 219 292
20 46 158
EOF
